
Gurobi 11.0.3 (linux64) logging started Mon 18 Nov 2024 10:03:21 PM CST

Set parameter LogFile to value "/home/dlcole3/graph_abstraction/hierarchical_graphs/git_storage/CS1/HP_low_reserves/gurobi_logs/serial/logfile_ST15_6.log"

Gurobi 11.0.3 (linux64) logging started Mon 18 Nov 2024 10:11:03 PM CST

Set parameter LogFile to value "/home/dlcole3/graph_abstraction/hierarchical_graphs/git_storage/CS1/HP_low_reserves/gurobi_logs/serial/logfile_ST15_6.log"
Gurobi Optimizer version 11.0.3 build v11.0.3rc0 (linux64 - "Ubuntu 18.04.3 LTS")

CPU model: Intel(R) Xeon(R) CPU E5-2698 v4 @ 2.20GHz, instruction set [SSE2|AVX|AVX2]
Thread count: 40 physical cores, 80 logical processors, using up to 20 threads

Optimize a model with 29168 rows, 50688 columns and 136175 nonzeros
Model fingerprint: 0x97661c5b
Variable types: 46944 continuous, 3744 integer (3744 binary)
Coefficient statistics:
  Matrix range     [6e-01, 2e+04]
  Objective range  [2e+00, 2e+04]
  Bounds range     [5e-02, 2e+05]
  RHS range        [5e-02, 7e+03]
Presolve removed 13725 rows and 38349 columns
Presolve time: 0.36s
Presolved: 15443 rows, 12339 columns, 65348 nonzeros
Variable types: 9331 continuous, 3008 integer (3008 binary)
Found heuristic solution: objective 189877.51033

Root relaxation: objective 6.933674e+04, 7431 iterations, 0.30 seconds (0.21 work units)

    Nodes    |    Current Node    |     Objective Bounds      |     Work
 Expl Unexpl |  Obj  Depth IntInf | Incumbent    BestBd   Gap | It/Node Time

     0     0 69336.7380    0    9 189877.510 69336.7380  63.5%     -    1s
H    0     0                    76505.678153 69336.7380  9.37%     -    1s
     0     0 69337.2072    0    9 76505.6782 69337.2072  9.37%     -    1s
     0     2 69337.2072    0    9 76505.6782 69337.2072  9.37%     -    1s
H   31    52                    76505.678123 69365.3955  9.33%   7.8    2s
H   32    52                    75122.758229 69365.3955  7.66%   7.8    2s
H   38    52                    70185.684659 69368.3131  1.16%   7.2    2s
H  150    62                    70157.913401 69379.3003  1.11%   5.4    2s
H  187    62                    69826.747945 69379.3003  0.64%   5.3    2s
H  232    13                    69770.141110 69670.9560  0.14%   5.0    2s

Explored 249 nodes (8616 simplex iterations) in 2.59 seconds (1.63 work units)
Thread count was 20 (of 80 available processors)

Solution count 7: 69770.1 69826.7 70157.9 ... 189878

Optimal solution found (tolerance 3.00e-03)
Best objective 6.977014111025e+04, best bound 6.967095599045e+04, gap 0.1422%

User-callback calls 2006, time in user-callback 0.00 sec
